14,8	0,0	18,6	14,5	0,0	0,0	0,0	0,0	0,0	13,3
15,6	9,2	0,0	16,3	17,0	0,0	0,0	17,5	0,0	0,0
0,0	0,0	5,2	0,0	19,9	8,1	0,0	0,0	7,4	0,0
13,4	0,0	13,5	0,0	0,0	0,0	5,7	0,0	0,0	0,0
0,0	8,0	0,0	17,1	7,7	0,0	0,0	11,6	0,0	0,0
0,0	18,6	7,2	0,0	14,3	11,0	0,0	0,0	12,6	0,0
0,0	17,7	0,0	9,8	0,0	0,0	19,7	0,0	0,0	8,0
16,2	0,0	9,9	0,0	0,0	0,0	0,0	0,0	0,0	15,6
0,0	12,3	0,0	18,7	18,9	0,0	0,0	7,3	0,0	0,0
0,0	0,0	16,0	0,0	0,0	10,8	10,3	0,0	0,0	7,7
0,0	9,1	0,0	0,0	8,6	0,0	6,9	0,0	5,2	13,7
15,3	0,0	6,5	0,0	17,9	0,0	9,5	18,3	8,1	0,0
0,0	9,9	0,0	0,0	0,0	9,2	0,0	19,4	16,5	16,0
19,6	5,3	9,3	0,0	0,0	18,1	0,0	10,5	12,5	0,0
16,0	0,0	16,3	0,0	16,6	12,6	5,1	16,2	0,0	0,0
0,0	5,8	0,0	14,5	0,0	8,5	0,0	13,9	0,0	0,0
12,1	0,0	19,2	16,2	19,4	0,0	0,0	6,4	0,0	0,0
0,0	0,0	11,9	0,0	0,0	18,5	19,6	0,0	13,9	13,6
7,7	0,0	0,0	10,3	9,4	18,6	8,4	10,1	0,0	9,0
0,0	15,6	0,0	19,8	0,0	0,0	12,1	0,0	7,0	7,2
									
3,7	3,3	3,5	3,5	4,7	3,9	2,7	3,7	3,1	4,6
